Route #1: 29 16 8 21 57 49 13 54 39 53
Route #2: 52 11 30 62 33 7 41 14
Route #3: 37 17 38 23 45 3 15 26 35
Route #4: 22 42 24 28 40 25 48 46
Route #5: 32 5 50 36 12 55 10 2 6 61
Route #6: 60 56 27 51 18 59 34 19
Route #7: 20 47 4 43 31
Route #8: 9 44 58
cost 1547
